84 93 
45 66 100 2 
88 26 85 52 12 8 98 82 59 17 
92 39 76 67 78 97 96 1 57 32 60 55 
65 30 24 6 19 29 68 58 3 
27 38 43 61 5 83 80 28 70 91 
14 21 
15 56 13 
31 23 11 47 46 9 
69 62 41 73 
87 10 48 4 95 
40 20 18 74 72 54 63 
42 
99 16 86 75 
37 34 
33 
36 64 44 79 53 22 49 7 89 51 81 35 71 90 50 25 77 94 
